webassembly/ejemplos_dzn/folder9_json_18.dzn
TERM = { '.', 'in_1', 'local_0', 'local_1', 'in_2', 'in_3', 's(1)', 's(0)', 'in_0'};
null = '.';
s = 9;
n = 11;
ndeps = 3;
max_registers_sz = 4;
NR = 1;
registers = [|'local_1', 's(1)'|];
dependencies = [|'i32.store16_2', 'call[function_index(0)]_4', |'call[function_index(0)]_4', 'i32.store8_7', |'i32.store8_7', 'i32.load8_u_8'|];
GET_ENUM = { GET1, GET2, GET3, GET4, GET5};
SET_ENUM = { SET1, SET2, SET3, SET4, SET5};
TEE_ENUM = { TEE1, TEE2, TEE3, TEE4, TEE5};
N = 6;
OP = { 'call[function_index(0)]_4', 'i32.store16_2', 'i32.const_0', 'i32.store8_7', 'i32.load8_u_8', 'local.get_0' };
in_ops = [2, 2, 0, 2, 1, 0 ];
out_ops = [0, 0, 1, 0, 1, 1 ];
in1 = ['in_0', 'local_1', '.', 's(1)', 'in_3', '.' ];
in2 = ['in_1', 'local_0', '.', 'in_2', '.', '.' ];
in3 = ['.', '.', '.', '.', '.', '.' ];
out1 = ['.', '.', 's(1)', '.', 's(0)', 'local_0' ];
out2 = ['.', '.', '.', '.', '.', '.' ];
out3 = ['.', '.', '.', '.', '.', '.' ];
comm = [false, false, false, false, false, false ];
gas = [1, 1, 1, 1, 1, 1 ];
sz = [1, 1, 1, 1, 1, 1 ];
stor = [true, true, false, true, false, false ];
lb = [ 1, 1, 1, 1, 1, 1 ];
ub = [ 9, 9, 9, 9, 9, 9 ];
startstack = [ 'in_0', 'in_1', 'in_2', 'in_3', null, null, null, null, null, null, null ];
endstack = [ 's(0)', null, null, null, null, null, null, null, null, null, null ];
