webassembly/ejemplos_results/9/folder9_json_18.txt
value = 9;
fgas = [1, 1, 1, 1, 1, 2, 1, 1, 1];
fsize = [1, 1, 1, 1, 1, 1, 1, 1, 1];
states = 
[|    in_0,    in_1, in_2, in_3, '.', '.', '.', '.', '.', '.', '.'
 |    in_0,    in_1, in_2, in_3, '.', '.', '.', '.', '.', '.', '.'
 | local_1, local_0,  '.',  '.', '.', '.', '.', '.', '.', '.', '.'
 |    in_2,    in_0,  '.',  '.', '.', '.', '.', '.', '.', '.', '.'
 |  's(1)',    in_2, in_0,  '.', '.', '.', '.', '.', '.', '.', '.'
 | local_0,  's(1)', in_2, in_0, '.', '.', '.', '.', '.', '.', '.'
 |  's(1)',    in_2, in_0,  '.', '.', '.', '.', '.', '.', '.', '.'
 |  's(1)',    in_2, in_0,  '.', '.', '.', '.', '.', '.', '.', '.'
 |    in_3,     '.',  '.',  '.', '.', '.', '.', '.', '.', '.', '.'
 |  's(0)',     '.',  '.',  '.', '.', '.', '.', '.', '.', '.', '.'
 |];
register_states = 
[| local_1, '.', '.', '.', '.'
 |    in_0, '.', '.', '.', '.'
 |    in_0, '.', '.', '.', '.'
 |    in_0, '.', '.', '.', '.'
 |    in_0, '.', '.', '.', '.'
 |    in_0, '.', '.', '.', '.'
 |    in_0, '.', '.', '.', '.'
 |  's(1)', '.', '.', '.', '.'
 |  's(1)', '.', '.', '.', '.'
 |  's(1)', '.', '.', '.', '.'
 |];
program = [TEE(TEE1), O('call[function_index(0)]_4'), O('i32.store16_2'), O('i32.const_0'), O('local.get_0'), POP, TEE(TEE1), O('i32.store8_7'), O('i32.load8_u_8')];
% time elapsed: 0.18 s
----------
value = 8;
fgas = [1, 1, 1, 1, 1, 1, 1, 1, 0];
fsize = [1, 1, 1, 1, 1, 1, 1, 1, 1];
states = 
[|    in_0,    in_1,   in_2, in_3, '.', '.', '.', '.', '.', '.', '.'
 | local_1, local_0,    '.',  '.', '.', '.', '.', '.', '.', '.', '.'
 |  's(1)',    in_2,    '.',  '.', '.', '.', '.', '.', '.', '.', '.'
 |    in_3,     '.',    '.',  '.', '.', '.', '.', '.', '.', '.', '.'
 |  's(0)',     '.',    '.',  '.', '.', '.', '.', '.', '.', '.', '.'
 |  's(1)',  's(0)',    '.',  '.', '.', '.', '.', '.', '.', '.', '.'
 | local_0,  's(1)', 's(0)',  '.', '.', '.', '.', '.', '.', '.', '.'
 |  's(1)',  's(0)',    '.',  '.', '.', '.', '.', '.', '.', '.', '.'
 |  's(0)',     '.',    '.',  '.', '.', '.', '.', '.', '.', '.', '.'
 |  's(0)',     '.',    '.',  '.', '.', '.', '.', '.', '.', '.', '.'
 |];
register_states = 
[| local_1, '.', '.', '.', '.'
 | local_1, '.', '.', '.', '.'
 | local_1, '.', '.', '.', '.'
 | local_1, '.', '.', '.', '.'
 | local_1, '.', '.', '.', '.'
 | local_1, '.', '.', '.', '.'
 | local_1, '.', '.', '.', '.'
 | local_0, '.', '.', '.', '.'
 |  's(1)', '.', '.', '.', '.'
 |  's(1)', '.', '.', '.', '.'
 |];
program = [O('call[function_index(0)]_4'), O('i32.store16_2'), O('i32.store8_7'), O('i32.load8_u_8'), O('i32.const_0'), O('local.get_0'), S(SET1), S(SET1), NOP];
% time elapsed: 0.18 s
----------
==========
% time elapsed: 0.20 s
% [value > 7]
